\ Model BalC
\ LP format - for model browsing. Use MPS format to capture full model detail.
Minimize
 
Subject To
 committee_size: cand[162,50+] + cand[319,40s] + cand[259,50+]
   + cand[1225,40s] + cand[1042,30s] + cand[1288,40s] + cand[1628,30s]
   + cand[1204,40s] + cand[1827,40s] + cand[1993,40s] + cand[573,50+]
   + cand[1282,50+] + cand[1606,40s] + cand[1373,50+] + cand[1167,40s]
   + cand[825,50+] + cand[73,30s] + cand[1824,50+] + cand[2036,30s]
   + cand[373,30s] + cand[1867,40s] + cand[58,40s] + cand[425,40s]
   + cand[1336,50+] + cand[429,30s] + cand[81,50+] + cand[158,40s]
   + cand[1039,40s] + cand[1038,50+] + cand[1293,40s] + cand[880,30s]
   + cand[83,30s] + cand[436,30s] + cand[1866,40s] + cand[1035,40s]
   + cand[515,30s] + cand[549,50+] + cand[1975,30s] + cand[374,50+]
   + cand[1294,30s] + cand[244,40s] + cand[1489,30s] + cand[329,50+]
   + cand[625,40s] + cand[569,40s] + cand[1547,40s] + cand[253,30s]
   + cand[809,40s] + cand[950,30s] + cand[1932,30s] + cand[254,50+]
   + cand[691,30s] + cand[307,30s] + cand[1666,40s] + cand[145,50+]
   + cand[857,30s] + cand[170,40s] + cand[1740,30s] + cand[1696,30s]
   + cand[957,40s] + cand[1383,30s] + cand[1117,40s] + cand[520,40s]
   + cand[721,30s] + cand[1892,30s] + cand[117,20s] + cand[182,30s]
   + cand[1375,30s] + cand[1267,40s] + cand[1995,30s] + cand[239,20s]
   + cand[387,40s] + cand[2017,30s] + cand[264,40s] + cand[524,30s]
   + cand[830,30s] + cand[1238,30s] + cand[529,30s] + cand[2000,40s]
   + cand[924,30s] + cand[1453,30s] + cand[1024,40s] + cand[1900,40s]
   + cand[1050,50+] + cand[339,30s] + cand[406,30s] + cand[600,30s]
   + cand[1478,30s] + cand[682,50+] + cand[1661,40s] + cand[442,30s]
   + cand[291,30s] + cand[780,30s] + cand[1485,30s] + cand[1073,30s]
   + cand[32,50+] + cand[1986,30s] + cand[899,30s] + cand[1128,30s]
   + cand[462,30s] + cand[1362,30s] + cand[1698,30s] + cand[1549,30s]
   + cand[452,40s] + cand[1706,40s] + cand[630,50+] + cand[1026,30s]
   + cand[683,30s] + cand[1422,50+] + cand[20,20s] + cand[153,30s]
   + cand[1196,30s] + cand[716,40s] + cand[1124,40s] + cand[215,30s]
   + cand[1701,30s] + cand[1360,50+] + cand[1334,40s] + cand[1712,40s]
   + cand[1480,40s] + cand[803,30s] + cand[302,40s] + cand[1184,30s]
   + cand[1658,30s] + cand[1285,30s] + cand[343,30s] + cand[1667,30s]
   + cand[1166,30s] + cand[1863,40s] + cand[597,50+] + cand[1443,40s]
   + cand[1541,30s] + cand[165,50+] + cand[1523,40s] + cand[372,40s]
   + cand[1815,40s] + cand[1224,20s] + cand[2032,50+] + cand[2031,40s]
   + cand[1708,40s] + cand[567,20s] + cand[100,30s] + cand[746,40s]
   + cand[391,30s] + cand[958,30s] + cand[1278,50+] + cand[23,50+]
   + cand[734,40s] + cand[692,30s] + cand[1716,40s] + cand[901,50+]
   + cand[1668,30s] + cand[558,30s] + cand[1805,30s] + cand[1550,30s]
   + cand[119,30s] + cand[605,40s] + cand[1596,30s] + cand[1539,40s]
   + cand[2016,30s] + cand[981,50+] + cand[420,30s] + cand[1852,20s]
   + cand[702,30s] + cand[999,40s] + cand[2015,30s] + cand[376,40s]
   + cand[1472,50+] + cand[1165,20s] + cand[352,30s] + cand[1277,40s]
   + cand[729,30s] + cand[1352,50+] + cand[1976,40s] + cand[1346,30s]
   + cand[1621,30s] + cand[1307,30s] + cand[444,30s] + cand[78,30s]
   + cand[292,20s] + cand[1553,40s] + cand[1737,30s] + cand[1956,30s]
   + cand[80,40s] + cand[138,30s] + cand[817,30s] + cand[417,30s]
   + cand[36,40s] + cand[202,30s] + cand[304,30s] + cand[1372,50+]
   + cand[836,40s] + cand[638,40s] + cand[1864,20s] + cand[1241,20s]
   + cand[976,50+] + cand[131,50+] + cand[840,40s] + cand[1329,40s]
   + cand[327,40s] + cand[571,20s] + cand[987,40s] + cand[206,40s]
   + cand[1656,40s] + cand[1014,30s] + cand[125,30s] + cand[2056,30s]
   + cand[689,30s] + cand[1798,30s] + cand[311,30s] + cand[1710,30s]
   + cand[296,50+] + cand[1520,50+] + cand[1101,30s] + cand[1088,30s]
   + cand[1468,30s] + cand[1562,20s] + cand[1582,30s] + cand[644,40s]
   + cand[601,30s] + cand[481,30s] + cand[1092,30s] + cand[851,50+]
   + cand[1630,30s] + cand[905,40s] + cand[1823,30s] + cand[184,20s]
   + cand[1244,20s] + cand[1790,30s] + cand[57,20s] + cand[1543,30s]
   + cand[107,30s] + cand[2026,50+] + cand[1043,30s] + cand[461,30s]
   + cand[820,40s] + cand[1691,40s] + cand[1665,50+] + cand[621,30s]
   + cand[1639,30s] + cand[1979,30s] + cand[1040,40s] + cand[595,40s]
   + cand[1109,40s] + cand[351,40s] + cand[1127,30s] + cand[944,40s]
   + cand[772,30s] + cand[1774,30s] + cand[747,20s] + cand[513,30s]
   + cand[1535,30s] + cand[1911,40s] + cand[1635,40s] + cand[1888,40s]
   + cand[1527,40s] + cand[1459,30s] + cand[1243,30s] + cand[967,30s]
   + cand[710,20s] + cand[1133,30s] + cand[1784,30s] + cand[1937,30s]
   + cand[1080,40s] + cand[1797,30s] + cand[1985,30s] + cand[1419,20s]
   + cand[1483,50+] + cand[1408,40s] + cand[118,40s] + cand[1356,30s]
   + cand[1324,30s] + cand[1250,50+] + cand[79,30s] + cand[1289,30s]
   + cand[404,40s] + cand[121,20s] + cand[1572,50+] + cand[207,30s]
   + cand[124,40s] + cand[731,40s] + cand[1971,40s] + cand[1046,30s]
   + cand[256,30s] + cand[335,30s] + cand[717,30s] + cand[1608,40s]
   + cand[1936,30s] + cand[1377,30s] + cand[2034,40s] + cand[984,30s]
   + cand[1252,30s] + cand[312,20s] + cand[464,30s] + cand[1719,40s]
   + cand[428,30s] + cand[592,30s] + cand[1857,40s] + cand[581,30s]
   + cand[228,20s] + cand[1363,40s] + cand[881,30s] + cand[663,40s]
   + cand[367,30s] + cand[1034,50+] + cand[970,30s] + cand[441,20s]
   + cand[1257,30s] + cand[992,30s] + cand[1402,40s] + cand[1233,50+]
   + cand[550,40s] + cand[807,30s] + cand[1192,20s] + cand[1315,20s]
   + cand[1962,30s] + cand[1013,50+] + cand[28,30s] + cand[776,50+]
   + cand[1727,40s] + cand[532,50+] + cand[855,30s] + cand[416,30s]
   + cand[531,30s] + cand[1578,50+] + cand[1082,20s] + cand[727,30s]
   + cand[1970,30s] + cand[789,30s] + cand[476,20s] + cand[1304,30s]
   + cand[1989,20s] + cand[1529,30s] + cand[1421,20s] + cand[1602,40s]
   + cand[1299,20s] + cand[74,30s] + cand[889,30s] + cand[1246,40s]
   + cand[1627,30s] + cand[1389,30s] + cand[844,20s] + cand[98,30s]
   + cand[1268,30s] + cand[1002,40s] + cand[388,20s] + cand[626,30s]
   + cand[227,40s] + cand[1119,30s] + cand[842,50+] + cand[961,30s]
   + cand[1237,30s] + cand[208,20s] + cand[419,30s] + cand[1845,40s]
   + cand[1693,20s] + cand[410,40s] + cand[653,30s] + cand[1950,30s]
   + cand[1319,50+] + cand[722,30s] + cand[534,40s] + cand[1821,40s]
   + cand[60,30s] + cand[1098,40s] + cand[13,30s] + cand[846,20s]
   + cand[306,30s] + cand[488,40s] + cand[698,50+] + cand[1074,50+]
   + cand[1756,30s] + cand[1703,40s] + cand[1618,30s] + cand[104,20s]
   + cand[1918,20s] + cand[1405,20s] + cand[606,40s] + cand[2009,30s]
   + cand[824,20s] + cand[1771,30s] + cand[389,50+] + cand[2041,30s]
   + cand[159,20s] + cand[1640,30s] + cand[1522,20s] + cand[1597,30s]
   + cand[1201,50+] + cand[363,40s] + cand[741,20s] + cand[724,30s]
   + cand[2008,30s] + cand[1794,30s] + cand[972,40s] + cand[1557,40s]
   + cand[1283,50+] + cand[599,40s] + cand[1880,30s] + cand[1967,30s]
   + cand[1100,30s] + cand[56,20s] + cand[163,30s] + cand[1005,40s]
   + cand[314,30s] + cand[1047,30s] + cand[1849,40s] + cand[1615,30s]
   + cand[1633,30s] + cand[733,20s] + cand[33,30s] + cand[966,30s]
   + cand[401,20s] + cand[1311,20s] + cand[1612,40s] + cand[725,20s]
   + cand[177,20s] + cand[1952,20s] + cand[1997,30s] + cand[382,30s]
   + cand[2065,40s] + cand[1778,40s] + cand[204,30s] + cand[154,30s]
   + cand[848,20s] + cand[982,20s] + cand[474,30s] + cand[397,30s]
   + cand[1081,50+] + cand[1121,20s] + cand[1138,40s] + cand[35,40s]
   + cand[456,20s] + cand[1588,30s] + cand[1061,40s] + cand[1537,30s]
   + cand[12,30s] + cand[913,40s] + cand[1177,20s] + cand[1280,40s]
   + cand[536,20s] + cand[1745,20s] + cand[904,30s] + cand[1669,20s]
   + cand[1809,30s] + cand[1729,20s] + cand[2,40s] + cand[1015,20s]
   + cand[1586,20s] + cand[1314,40s] + cand[1924,30s] + cand[582,30s]
   + cand[1934,40s] + cand[1484,40s] + cand[283,20s] + cand[1973,50+]
   + cand[96,30s] + cand[1255,40s] + cand[2024,30s] + cand[1435,30s]
   + cand[361,30s] + cand[199,40s] + cand[903,40s] + cand[1182,30s]
   + cand[176,40s] + cand[336,40s] + cand[328,30s] + cand[1297,50+]
   + cand[41,20s] + cand[267,30s] + cand[1066,30s] + cand[5,30s]
   + cand[1085,40s] + cand[1898,20s] + cand[1497,20s] + cand[238,30s]
   + cand[564,20s] + cand[1344,30s] + cand[1150,20s] + cand[421,30s]
   + cand[1423,50+] + cand[1106,20s] + cand[941,30s] + cand[1338,50+]
   + cand[760,30s] + cand[2035,30s] + cand[147,30s] + cand[985,30s]
   + cand[430,40s] + cand[1457,40s] + cand[1321,20s] + cand[433,50+]
   + cand[867,50+] + cand[1070,50+] + cand[579,30s] + cand[2019,50+]
   + cand[1890,30s] + cand[1295,40s] + cand[942,30s] + cand[195,30s]
   + cand[381,30s] + cand[728,40s] + cand[1881,30s] + cand[762,50+]
   + cand[616,40s] + cand[1829,30s] + cand[1576,40s] + cand[956,20s]
   + cand[947,30s] + cand[1220,30s] + cand[62,40s] + cand[1870,20s]
   + cand[15,20s] + cand[783,40s] + cand[1264,20s] + cand[659,40s]
   + cand[1642,40s] + cand[1152,30s] + cand[1754,20s] + cand[1728,30s]
   + cand[1369,30s] + cand[990,30s] + cand[1007,40s] + cand[1221,30s]
   + cand[1653,20s] + cand[205,50+] + cand[1417,20s] + cand[1235,30s]
   + cand[1764,30s] + cand[2057,30s] + cand[1619,20s] + cand[1118,50+]
   + cand[1544,20s] + cand[1732,40s] + cand[1097,20s] + cand[120,50+]
   + cand[1927,20s] + cand[483,30s] + cand[281,30s] + cand[823,30s]
   + cand[2062,30s] + cand[1449,30s] + cand[1460,40s] + cand[742,30s]
   + cand[1514,20s] + cand[1611,40s] + cand[793,20s] + cand[500,50+]
   + cand[1355,30s] + cand[1218,30s] + cand[1312,30s] + cand[8,30s]
   + cand[1349,40s] + cand[1322,30s] + cand[1965,20s] + cand[293,20s]
   + cand[764,20s] + cand[1298,20s] + cand[1126,40s] + cand[2040,30s]
   + cand[275,40s] + cand[273,30s] + cand[286,30s] + cand[1003,40s]
   + cand[160,30s] + cand[1677,40s] + cand[1548,30s] + cand[1172,30s]
   + cand[252,30s] + cand[2014,30s] + cand[438,30s] + cand[1804,30s]
   + cand[1275,20s] + cand[76,30s] + cand[448,40s] + cand[1869,40s]
   + cand[454,20s] + cand[463,20s] + cand[458,20s] + cand[439,30s]
   + cand[471,30s] + cand[412,20s] + cand[845,30s] + cand[161,50+]
   + cand[757,30s] + cand[164,20s] + cand[1424,50+] + cand[608,20s]
   + cand[577,30s] + cand[1554,30s] + cand[802,30s] + cand[1018,20s]
   + cand[1179,20s] + cand[1941,40s] + cand[1763,20s] + cand[148,50+]
   + cand[1032,50+] + cand[635,30s] + cand[586,30s] + cand[1673,30s]
   + cand[498,20s] + cand[533,20s] + cand[226,40s] + cand[1191,50+]
   + cand[1403,20s] + cand[2010,30s] + cand[16,30s] + cand[1392,40s]
   + cand[1309,30s] + cand[602,30s] + cand[530,30s] + cand[927,40s]
   + cand[1380,30s] + cand[1391,50+] + cand[2049,30s] + cand[385,40s]
   + cand[1905,30s] + cand[1009,20s] + cand[390,20s] + cand[888,20s]
   + cand[1675,30s] + cand[1641,30s] + cand[1120,20s] + cand[709,30s]
   + cand[1216,20s] + cand[230,30s] + cand[1854,40s] + cand[1350,30s]
   + cand[1439,20s] + cand[1234,30s] + cand[1027,20s] + cand[752,40s]
   + cand[1226,10s] + cand[1185,30s] + cand[754,40s] + cand[792,20s]
   + cand[1412,30s] + cand[591,40s] + cand[1001,20s] + cand[1037,20s]
   + cand[763,30s] + cand[766,20s] + cand[769,50+] + cand[1671,30s]
   + cand[1279,20s] + cand[828,20s] + cand[1215,40s] + cand[826,30s]
   + cand[1025,40s] + cand[1102,20s] + cand[852,40s] + cand[720,20s]
   + cand[1069,40s] + cand[1308,50+] + cand[712,40s] + cand[897,50+]
   + cand[902,40s] + cand[932,30s] + cand[77,30s] + cand[930,20s]
   + cand[1951,30s] + cand[1116,40s] + cand[1108,30s] + cand[1331,30s]
   + cand[1060,30s] + cand[1291,30s] + cand[1045,40s] + cand[1131,20s]
   + cand[632,20s] + cand[675,20s] + cand[1816,20s] + cand[1617,40s]
   + cand[1162,20s] + cand[260,20s] + cand[1044,30s] + cand[732,50+]
   + cand[1160,30s] + cand[872,20s] + cand[141,40s] + cand[1296,20s]
   + cand[875,40s] + cand[258,50+] + cand[1135,30s] + cand[1303,20s]
   + cand[738,40s] + cand[1022,40s] + cand[431,40s] + cand[1464,30s]
   + cand[277,30s] + cand[274,20s] + cand[1792,40s] + cand[1800,30s]
   + cand[262,40s] + cand[1801,40s] + cand[1812,30s] + cand[245,30s]
   + cand[1786,50+] + cand[241,50+] + cand[1833,30s] + cand[1837,50+]
   + cand[1844,20s] + cand[1807,30s] + cand[218,20s] + cand[217,20s]
   + cand[446,30s] + cand[1789,40s] + cand[1779,30s] + cand[440,20s]
   + cand[1674,40s] + cand[426,30s] + cand[1644,40s] + cand[1645,30s]
   + cand[1657,10s] + cand[399,30s] + cand[1683,40s] + cand[1752,20s]
   + cand[666,30s] + cand[337,30s] + cand[333,30s] + cand[1830,50+]
   + cand[1733,30s] + cand[321,50+] + cand[316,50+] + cand[1746,20s]
   + cand[1856,40s] + cand[1858,20s] + cand[2013,30s] + cand[1969,50+]
   + cand[75,30s] + cand[70,30s] + cand[65,20s] + cand[2003,30s]
   + cand[49,30s] + cand[1862,30s] + cand[45,20s] + cand[38,40s]
   + cand[2027,20s] + cand[645,20s] + cand[2048,30s] + cand[2055,40s]
   + cand[7,20s] + cand[1968,50+] + cand[1948,30s] + cand[197,20s]
   + cand[193,30s] + cand[183,20s] = 100
 group_bounds: cand[1226,10s] + cand[1657,10s] >= 0
 group_bounds: cand[117,20s] + cand[239,20s] + cand[20,20s]
   + cand[1224,20s] + cand[567,20s] + cand[1852,20s] + cand[1165,20s]
   + cand[292,20s] + cand[1864,20s] + cand[1241,20s] + cand[571,20s]
   + cand[1562,20s] + cand[184,20s] + cand[1244,20s] + cand[57,20s]
   + cand[747,20s] + cand[710,20s] + cand[1419,20s] + cand[121,20s]
   + cand[312,20s] + cand[228,20s] + cand[441,20s] + cand[1192,20s]
   + cand[1315,20s] + cand[1082,20s] + cand[476,20s] + cand[1989,20s]
   + cand[1421,20s] + cand[1299,20s] + cand[844,20s] + cand[388,20s]
   + cand[208,20s] + cand[1693,20s] + cand[846,20s] + cand[104,20s]
   + cand[1918,20s] + cand[1405,20s] + cand[824,20s] + cand[159,20s]
   + cand[1522,20s] + cand[741,20s] + cand[56,20s] + cand[733,20s]
   + cand[401,20s] + cand[1311,20s] + cand[725,20s] + cand[177,20s]
   + cand[1952,20s] + cand[848,20s] + cand[982,20s] + cand[1121,20s]
   + cand[456,20s] + cand[1177,20s] + cand[536,20s] + cand[1745,20s]
   + cand[1669,20s] + cand[1729,20s] + cand[1015,20s] + cand[1586,20s]
   + cand[283,20s] + cand[41,20s] + cand[1898,20s] + cand[1497,20s]
   + cand[564,20s] + cand[1150,20s] + cand[1106,20s] + cand[1321,20s]
   + cand[956,20s] + cand[1870,20s] + cand[15,20s] + cand[1264,20s]
   + cand[1754,20s] + cand[1653,20s] + cand[1417,20s] + cand[1619,20s]
   + cand[1544,20s] + cand[1097,20s] + cand[1927,20s] + cand[1514,20s]
   + cand[793,20s] + cand[1965,20s] + cand[293,20s] + cand[764,20s]
   + cand[1298,20s] + cand[1275,20s] + cand[454,20s] + cand[463,20s]
   + cand[458,20s] + cand[412,20s] + cand[164,20s] + cand[608,20s]
   + cand[1018,20s] + cand[1179,20s] + cand[1763,20s] + cand[498,20s]
   + cand[533,20s] + cand[1403,20s] + cand[1009,20s] + cand[390,20s]
   + cand[888,20s] + cand[1120,20s] + cand[1216,20s] + cand[1439,20s]
   + cand[1027,20s] + cand[792,20s] + cand[1001,20s] + cand[1037,20s]
   + cand[766,20s] + cand[1279,20s] + cand[828,20s] + cand[1102,20s]
   + cand[720,20s] + cand[930,20s] + cand[1131,20s] + cand[632,20s]
   + cand[675,20s] + cand[1816,20s] + cand[1162,20s] + cand[260,20s]
   + cand[872,20s] + cand[1296,20s] + cand[1303,20s] + cand[274,20s]
   + cand[1844,20s] + cand[218,20s] + cand[217,20s] + cand[440,20s]
   + cand[1752,20s] + cand[1746,20s] + cand[1858,20s] + cand[65,20s]
   + cand[45,20s] + cand[2027,20s] + cand[645,20s] + cand[7,20s]
   + cand[197,20s] + cand[183,20s] >= 18
 group_bounds: cand[1042,30s] + cand[1628,30s] + cand[73,30s]
   + cand[2036,30s] + cand[373,30s] + cand[429,30s] + cand[880,30s]
   + cand[83,30s] + cand[436,30s] + cand[515,30s] + cand[1975,30s]
   + cand[1294,30s] + cand[1489,30s] + cand[253,30s] + cand[950,30s]
   + cand[1932,30s] + cand[691,30s] + cand[307,30s] + cand[857,30s]
   + cand[1740,30s] + cand[1696,30s] + cand[1383,30s] + cand[721,30s]
   + cand[1892,30s] + cand[182,30s] + cand[1375,30s] + cand[1995,30s]
   + cand[2017,30s] + cand[524,30s] + cand[830,30s] + cand[1238,30s]
   + cand[529,30s] + cand[924,30s] + cand[1453,30s] + cand[339,30s]
   + cand[406,30s] + cand[600,30s] + cand[1478,30s] + cand[442,30s]
   + cand[291,30s] + cand[780,30s] + cand[1485,30s] + cand[1073,30s]
   + cand[1986,30s] + cand[899,30s] + cand[1128,30s] + cand[462,30s]
   + cand[1362,30s] + cand[1698,30s] + cand[1549,30s] + cand[1026,30s]
   + cand[683,30s] + cand[153,30s] + cand[1196,30s] + cand[215,30s]
   + cand[1701,30s] + cand[803,30s] + cand[1184,30s] + cand[1658,30s]
   + cand[1285,30s] + cand[343,30s] + cand[1667,30s] + cand[1166,30s]
   + cand[1541,30s] + cand[100,30s] + cand[391,30s] + cand[958,30s]
   + cand[692,30s] + cand[1668,30s] + cand[558,30s] + cand[1805,30s]
   + cand[1550,30s] + cand[119,30s] + cand[1596,30s] + cand[2016,30s]
   + cand[420,30s] + cand[702,30s] + cand[2015,30s] + cand[352,30s]
   + cand[729,30s] + cand[1346,30s] + cand[1621,30s] + cand[1307,30s]
   + cand[444,30s] + cand[78,30s] + cand[1737,30s] + cand[1956,30s]
   + cand[138,30s] + cand[817,30s] + cand[417,30s] + cand[202,30s]
   + cand[304,30s] + cand[1014,30s] + cand[125,30s] + cand[2056,30s]
   + cand[689,30s] + cand[1798,30s] + cand[311,30s] + cand[1710,30s]
   + cand[1101,30s] + cand[1088,30s] + cand[1468,30s] + cand[1582,30s]
   + cand[601,30s] + cand[481,30s] + cand[1092,30s] + cand[1630,30s]
   + cand[1823,30s] + cand[1790,30s] + cand[1543,30s] + cand[107,30s]
   + cand[1043,30s] + cand[461,30s] + cand[621,30s] + cand[1639,30s]
   + cand[1979,30s] + cand[1127,30s] + cand[772,30s] + cand[1774,30s]
   + cand[513,30s] + cand[1535,30s] + cand[1459,30s] + cand[1243,30s]
   + cand[967,30s] + cand[1133,30s] + cand[1784,30s] + cand[1937,30s]
   + cand[1797,30s] + cand[1985,30s] + cand[1356,30s] + cand[1324,30s]
   + cand[79,30s] + cand[1289,30s] + cand[207,30s] + cand[1046,30s]
   + cand[256,30s] + cand[335,30s] + cand[717,30s] + cand[1936,30s]
   + cand[1377,30s] + cand[984,30s] + cand[1252,30s] + cand[464,30s]
   + cand[428,30s] + cand[592,30s] + cand[581,30s] + cand[881,30s]
   + cand[367,30s] + cand[970,30s] + cand[1257,30s] + cand[992,30s]
   + cand[807,30s] + cand[1962,30s] + cand[28,30s] + cand[855,30s]
   + cand[416,30s] + cand[531,30s] + cand[727,30s] + cand[1970,30s]
   + cand[789,30s] + cand[1304,30s] + cand[1529,30s] + cand[74,30s]
   + cand[889,30s] + cand[1627,30s] + cand[1389,30s] + cand[98,30s]
   + cand[1268,30s] + cand[626,30s] + cand[1119,30s] + cand[961,30s]
   + cand[1237,30s] + cand[419,30s] + cand[653,30s] + cand[1950,30s]
   + cand[722,30s] + cand[60,30s] + cand[13,30s] + cand[306,30s]
   + cand[1756,30s] + cand[1618,30s] + cand[2009,30s] + cand[1771,30s]
   + cand[2041,30s] + cand[1640,30s] + cand[1597,30s] + cand[724,30s]
   + cand[2008,30s] + cand[1794,30s] + cand[1880,30s] + cand[1967,30s]
   + cand[1100,30s] + cand[163,30s] + cand[314,30s] + cand[1047,30s]
   + cand[1615,30s] + cand[1633,30s] + cand[33,30s] + cand[966,30s]
   + cand[1997,30s] + cand[382,30s] + cand[204,30s] + cand[154,30s]
   + cand[474,30s] + cand[397,30s] + cand[1588,30s] + cand[1537,30s]
   + cand[12,30s] + cand[904,30s] + cand[1809,30s] + cand[1924,30s]
   + cand[582,30s] + cand[96,30s] + cand[2024,30s] + cand[1435,30s]
   + cand[361,30s] + cand[1182,30s] + cand[328,30s] + cand[267,30s]
   + cand[1066,30s] + cand[5,30s] + cand[238,30s] + cand[1344,30s]
   + cand[421,30s] + cand[941,30s] + cand[760,30s] + cand[2035,30s]
   + cand[147,30s] + cand[985,30s] + cand[579,30s] + cand[1890,30s]
   + cand[942,30s] + cand[195,30s] + cand[381,30s] + cand[1881,30s]
   + cand[1829,30s] + cand[947,30s] + cand[1220,30s] + cand[1152,30s]
   + cand[1728,30s] + cand[1369,30s] + cand[990,30s] + cand[1221,30s]
   + cand[1235,30s] + cand[1764,30s] + cand[2057,30s] + cand[483,30s]
   + cand[281,30s] + cand[823,30s] + cand[2062,30s] + cand[1449,30s]
   + cand[742,30s] + cand[1355,30s] + cand[1218,30s] + cand[1312,30s]
   + cand[8,30s] + cand[1322,30s] + cand[2040,30s] + cand[273,30s]
   + cand[286,30s] + cand[160,30s] + cand[1548,30s] + cand[1172,30s]
   + cand[252,30s] + cand[2014,30s] + cand[438,30s] + cand[1804,30s]
   + cand[76,30s] + cand[439,30s] + cand[471,30s] + cand[845,30s]
   + cand[757,30s] + cand[577,30s] + cand[1554,30s] + cand[802,30s]
   + cand[635,30s] + cand[586,30s] + cand[1673,30s] + cand[2010,30s]
   + cand[16,30s] + cand[1309,30s] + cand[602,30s] + cand[530,30s]
   + cand[1380,30s] + cand[2049,30s] + cand[1905,30s] + cand[1675,30s]
   + cand[1641,30s] + cand[709,30s] + cand[230,30s] + cand[1350,30s]
   + cand[1234,30s] + cand[1185,30s] + cand[1412,30s] + cand[763,30s]
   + cand[1671,30s] + cand[826,30s] + cand[932,30s] + cand[77,30s]
   + cand[1951,30s] + cand[1108,30s] + cand[1331,30s] + cand[1060,30s]
   + cand[1291,30s] + cand[1044,30s] + cand[1160,30s] + cand[1135,30s]
   + cand[1464,30s] + cand[277,30s] + cand[1800,30s] + cand[1812,30s]
   + cand[245,30s] + cand[1833,30s] + cand[1807,30s] + cand[446,30s]
   + cand[1779,30s] + cand[426,30s] + cand[1645,30s] + cand[399,30s]
   + cand[666,30s] + cand[337,30s] + cand[333,30s] + cand[1733,30s]
   + cand[2013,30s] + cand[75,30s] + cand[70,30s] + cand[2003,30s]
   + cand[49,30s] + cand[1862,30s] + cand[2048,30s] + cand[1948,30s]
   + cand[193,30s] >= 45
 group_bounds: cand[319,40s] + cand[1225,40s] + cand[1288,40s]
   + cand[1204,40s] + cand[1827,40s] + cand[1993,40s] + cand[1606,40s]
   + cand[1167,40s] + cand[1867,40s] + cand[58,40s] + cand[425,40s]
   + cand[158,40s] + cand[1039,40s] + cand[1293,40s] + cand[1866,40s]
   + cand[1035,40s] + cand[244,40s] + cand[625,40s] + cand[569,40s]
   + cand[1547,40s] + cand[809,40s] + cand[1666,40s] + cand[170,40s]
   + cand[957,40s] + cand[1117,40s] + cand[520,40s] + cand[1267,40s]
   + cand[387,40s] + cand[264,40s] + cand[2000,40s] + cand[1024,40s]
   + cand[1900,40s] + cand[1661,40s] + cand[452,40s] + cand[1706,40s]
   + cand[716,40s] + cand[1124,40s] + cand[1334,40s] + cand[1712,40s]
   + cand[1480,40s] + cand[302,40s] + cand[1863,40s] + cand[1443,40s]
   + cand[1523,40s] + cand[372,40s] + cand[1815,40s] + cand[2031,40s]
   + cand[1708,40s] + cand[746,40s] + cand[734,40s] + cand[1716,40s]
   + cand[605,40s] + cand[1539,40s] + cand[999,40s] + cand[376,40s]
   + cand[1277,40s] + cand[1976,40s] + cand[1553,40s] + cand[80,40s]
   + cand[36,40s] + cand[836,40s] + cand[638,40s] + cand[840,40s]
   + cand[1329,40s] + cand[327,40s] + cand[987,40s] + cand[206,40s]
   + cand[1656,40s] + cand[644,40s] + cand[905,40s] + cand[820,40s]
   + cand[1691,40s] + cand[1040,40s] + cand[595,40s] + cand[1109,40s]
   + cand[351,40s] + cand[944,40s] + cand[1911,40s] + cand[1635,40s]
   + cand[1888,40s] + cand[1527,40s] + cand[1080,40s] + cand[1408,40s]
   + cand[118,40s] + cand[404,40s] + cand[124,40s] + cand[731,40s]
   + cand[1971,40s] + cand[1608,40s] + cand[2034,40s] + cand[1719,40s]
   + cand[1857,40s] + cand[1363,40s] + cand[663,40s] + cand[1402,40s]
   + cand[550,40s] + cand[1727,40s] + cand[1602,40s] + cand[1246,40s]
   + cand[1002,40s] + cand[227,40s] + cand[1845,40s] + cand[410,40s]
   + cand[534,40s] + cand[1821,40s] + cand[1098,40s] + cand[488,40s]
   + cand[1703,40s] + cand[606,40s] + cand[363,40s] + cand[972,40s]
   + cand[1557,40s] + cand[599,40s] + cand[1005,40s] + cand[1849,40s]
   + cand[1612,40s] + cand[2065,40s] + cand[1778,40s] + cand[1138,40s]
   + cand[35,40s] + cand[1061,40s] + cand[913,40s] + cand[1280,40s]
   + cand[2,40s] + cand[1314,40s] + cand[1934,40s] + cand[1484,40s]
   + cand[1255,40s] + cand[199,40s] + cand[903,40s] + cand[176,40s]
   + cand[336,40s] + cand[1085,40s] + cand[430,40s] + cand[1457,40s]
   + cand[1295,40s] + cand[728,40s] + cand[616,40s] + cand[1576,40s]
   + cand[62,40s] + cand[783,40s] + cand[659,40s] + cand[1642,40s]
   + cand[1007,40s] + cand[1732,40s] + cand[1460,40s] + cand[1611,40s]
   + cand[1349,40s] + cand[1126,40s] + cand[275,40s] + cand[1003,40s]
   + cand[1677,40s] + cand[448,40s] + cand[1869,40s] + cand[1941,40s]
   + cand[226,40s] + cand[1392,40s] + cand[927,40s] + cand[385,40s]
   + cand[1854,40s] + cand[752,40s] + cand[754,40s] + cand[591,40s]
   + cand[1215,40s] + cand[1025,40s] + cand[852,40s] + cand[1069,40s]
   + cand[712,40s] + cand[902,40s] + cand[1116,40s] + cand[1045,40s]
   + cand[1617,40s] + cand[141,40s] + cand[875,40s] + cand[738,40s]
   + cand[1022,40s] + cand[431,40s] + cand[1792,40s] + cand[262,40s]
   + cand[1801,40s] + cand[1789,40s] + cand[1674,40s] + cand[1644,40s]
   + cand[1683,40s] + cand[1856,40s] + cand[38,40s] + cand[2055,40s] >= 25
 group_bounds: cand[162,50+] + cand[259,50+] + cand[573,50+]
   + cand[1282,50+] + cand[1373,50+] + cand[825,50+] + cand[1824,50+]
   + cand[1336,50+] + cand[81,50+] + cand[1038,50+] + cand[549,50+]
   + cand[374,50+] + cand[329,50+] + cand[254,50+] + cand[145,50+]
   + cand[1050,50+] + cand[682,50+] + cand[32,50+] + cand[630,50+]
   + cand[1422,50+] + cand[1360,50+] + cand[597,50+] + cand[165,50+]
   + cand[2032,50+] + cand[1278,50+] + cand[23,50+] + cand[901,50+]
   + cand[981,50+] + cand[1472,50+] + cand[1352,50+] + cand[1372,50+]
   + cand[976,50+] + cand[131,50+] + cand[296,50+] + cand[1520,50+]
   + cand[851,50+] + cand[2026,50+] + cand[1665,50+] + cand[1483,50+]
   + cand[1250,50+] + cand[1572,50+] + cand[1034,50+] + cand[1233,50+]
   + cand[1013,50+] + cand[776,50+] + cand[532,50+] + cand[1578,50+]
   + cand[842,50+] + cand[1319,50+] + cand[698,50+] + cand[1074,50+]
   + cand[389,50+] + cand[1201,50+] + cand[1283,50+] + cand[1081,50+]
   + cand[1973,50+] + cand[1297,50+] + cand[1423,50+] + cand[1338,50+]
   + cand[433,50+] + cand[867,50+] + cand[1070,50+] + cand[2019,50+]
   + cand[762,50+] + cand[205,50+] + cand[1118,50+] + cand[120,50+]
   + cand[500,50+] + cand[161,50+] + cand[1424,50+] + cand[148,50+]
   + cand[1032,50+] + cand[1191,50+] + cand[1391,50+] + cand[769,50+]
   + cand[1308,50+] + cand[897,50+] + cand[732,50+] + cand[258,50+]
   + cand[1786,50+] + cand[241,50+] + cand[1837,50+] + cand[1830,50+]
   + cand[321,50+] + cand[316,50+] + cand[1969,50+] + cand[1968,50+] >= 12
Bounds
Binaries
 cand[162,50+] cand[319,40s] cand[259,50+] cand[1225,40s] cand[1042,30s]
 cand[1288,40s] cand[1628,30s] cand[1204,40s] cand[1827,40s] cand[1993,40s]
 cand[573,50+] cand[1282,50+] cand[1606,40s] cand[1373,50+] cand[1167,40s]
 cand[825,50+] cand[73,30s] cand[1824,50+] cand[2036,30s] cand[373,30s]
 cand[1867,40s] cand[58,40s] cand[425,40s] cand[1336,50+] cand[429,30s]
 cand[81,50+] cand[158,40s] cand[1039,40s] cand[1038,50+] cand[1293,40s]
 cand[880,30s] cand[83,30s] cand[436,30s] cand[1866,40s] cand[1035,40s]
 cand[515,30s] cand[549,50+] cand[1975,30s] cand[374,50+] cand[1294,30s]
 cand[244,40s] cand[1489,30s] cand[329,50+] cand[625,40s] cand[569,40s]
 cand[1547,40s] cand[253,30s] cand[809,40s] cand[950,30s] cand[1932,30s]
 cand[254,50+] cand[691,30s] cand[307,30s] cand[1666,40s] cand[145,50+]
 cand[857,30s] cand[170,40s] cand[1740,30s] cand[1696,30s] cand[957,40s]
 cand[1383,30s] cand[1117,40s] cand[520,40s] cand[721,30s] cand[1892,30s]
 cand[117,20s] cand[182,30s] cand[1375,30s] cand[1267,40s] cand[1995,30s]
 cand[239,20s] cand[387,40s] cand[2017,30s] cand[264,40s] cand[524,30s]
 cand[830,30s] cand[1238,30s] cand[529,30s] cand[2000,40s] cand[924,30s]
 cand[1453,30s] cand[1024,40s] cand[1900,40s] cand[1050,50+] cand[339,30s]
 cand[406,30s] cand[600,30s] cand[1478,30s] cand[682,50+] cand[1661,40s]
 cand[442,30s] cand[291,30s] cand[780,30s] cand[1485,30s] cand[1073,30s]
 cand[32,50+] cand[1986,30s] cand[899,30s] cand[1128,30s] cand[462,30s]
 cand[1362,30s] cand[1698,30s] cand[1549,30s] cand[452,40s] cand[1706,40s]
 cand[630,50+] cand[1026,30s] cand[683,30s] cand[1422,50+] cand[20,20s]
 cand[153,30s] cand[1196,30s] cand[716,40s] cand[1124,40s] cand[215,30s]
 cand[1701,30s] cand[1360,50+] cand[1334,40s] cand[1712,40s] cand[1480,40s]
 cand[803,30s] cand[302,40s] cand[1184,30s] cand[1658,30s] cand[1285,30s]
 cand[343,30s] cand[1667,30s] cand[1166,30s] cand[1863,40s] cand[597,50+]
 cand[1443,40s] cand[1541,30s] cand[165,50+] cand[1523,40s] cand[372,40s]
 cand[1815,40s] cand[1224,20s] cand[2032,50+] cand[2031,40s] cand[1708,40s]
 cand[567,20s] cand[100,30s] cand[746,40s] cand[391,30s] cand[958,30s]
 cand[1278,50+] cand[23,50+] cand[734,40s] cand[692,30s] cand[1716,40s]
 cand[901,50+] cand[1668,30s] cand[558,30s] cand[1805,30s] cand[1550,30s]
 cand[119,30s] cand[605,40s] cand[1596,30s] cand[1539,40s] cand[2016,30s]
 cand[981,50+] cand[420,30s] cand[1852,20s] cand[702,30s] cand[999,40s]
 cand[2015,30s] cand[376,40s] cand[1472,50+] cand[1165,20s] cand[352,30s]
 cand[1277,40s] cand[729,30s] cand[1352,50+] cand[1976,40s] cand[1346,30s]
 cand[1621,30s] cand[1307,30s] cand[444,30s] cand[78,30s] cand[292,20s]
 cand[1553,40s] cand[1737,30s] cand[1956,30s] cand[80,40s] cand[138,30s]
 cand[817,30s] cand[417,30s] cand[36,40s] cand[202,30s] cand[304,30s]
 cand[1372,50+] cand[836,40s] cand[638,40s] cand[1864,20s] cand[1241,20s]
 cand[976,50+] cand[131,50+] cand[840,40s] cand[1329,40s] cand[327,40s]
 cand[571,20s] cand[987,40s] cand[206,40s] cand[1656,40s] cand[1014,30s]
 cand[125,30s] cand[2056,30s] cand[689,30s] cand[1798,30s] cand[311,30s]
 cand[1710,30s] cand[296,50+] cand[1520,50+] cand[1101,30s] cand[1088,30s]
 cand[1468,30s] cand[1562,20s] cand[1582,30s] cand[644,40s] cand[601,30s]
 cand[481,30s] cand[1092,30s] cand[851,50+] cand[1630,30s] cand[905,40s]
 cand[1823,30s] cand[184,20s] cand[1244,20s] cand[1790,30s] cand[57,20s]
 cand[1543,30s] cand[107,30s] cand[2026,50+] cand[1043,30s] cand[461,30s]
 cand[820,40s] cand[1691,40s] cand[1665,50+] cand[621,30s] cand[1639,30s]
 cand[1979,30s] cand[1040,40s] cand[595,40s] cand[1109,40s] cand[351,40s]
 cand[1127,30s] cand[944,40s] cand[772,30s] cand[1774,30s] cand[747,20s]
 cand[513,30s] cand[1535,30s] cand[1911,40s] cand[1635,40s] cand[1888,40s]
 cand[1527,40s] cand[1459,30s] cand[1243,30s] cand[967,30s] cand[710,20s]
 cand[1133,30s] cand[1784,30s] cand[1937,30s] cand[1080,40s] cand[1797,30s]
 cand[1985,30s] cand[1419,20s] cand[1483,50+] cand[1408,40s] cand[118,40s]
 cand[1356,30s] cand[1324,30s] cand[1250,50+] cand[79,30s] cand[1289,30s]
 cand[404,40s] cand[121,20s] cand[1572,50+] cand[207,30s] cand[124,40s]
 cand[731,40s] cand[1971,40s] cand[1046,30s] cand[256,30s] cand[335,30s]
 cand[717,30s] cand[1608,40s] cand[1936,30s] cand[1377,30s] cand[2034,40s]
 cand[984,30s] cand[1252,30s] cand[312,20s] cand[464,30s] cand[1719,40s]
 cand[428,30s] cand[592,30s] cand[1857,40s] cand[581,30s] cand[228,20s]
 cand[1363,40s] cand[881,30s] cand[663,40s] cand[367,30s] cand[1034,50+]
 cand[970,30s] cand[441,20s] cand[1257,30s] cand[992,30s] cand[1402,40s]
 cand[1233,50+] cand[550,40s] cand[807,30s] cand[1192,20s] cand[1315,20s]
 cand[1962,30s] cand[1013,50+] cand[28,30s] cand[776,50+] cand[1727,40s]
 cand[532,50+] cand[855,30s] cand[416,30s] cand[531,30s] cand[1578,50+]
 cand[1082,20s] cand[727,30s] cand[1970,30s] cand[789,30s] cand[476,20s]
 cand[1304,30s] cand[1989,20s] cand[1529,30s] cand[1421,20s] cand[1602,40s]
 cand[1299,20s] cand[74,30s] cand[889,30s] cand[1246,40s] cand[1627,30s]
 cand[1389,30s] cand[844,20s] cand[98,30s] cand[1268,30s] cand[1002,40s]
 cand[388,20s] cand[626,30s] cand[227,40s] cand[1119,30s] cand[842,50+]
 cand[961,30s] cand[1237,30s] cand[208,20s] cand[419,30s] cand[1845,40s]
 cand[1693,20s] cand[410,40s] cand[653,30s] cand[1950,30s] cand[1319,50+]
 cand[722,30s] cand[534,40s] cand[1821,40s] cand[60,30s] cand[1098,40s]
 cand[13,30s] cand[846,20s] cand[306,30s] cand[488,40s] cand[698,50+]
 cand[1074,50+] cand[1756,30s] cand[1703,40s] cand[1618,30s] cand[104,20s]
 cand[1918,20s] cand[1405,20s] cand[606,40s] cand[2009,30s] cand[824,20s]
 cand[1771,30s] cand[389,50+] cand[2041,30s] cand[159,20s] cand[1640,30s]
 cand[1522,20s] cand[1597,30s] cand[1201,50+] cand[363,40s] cand[741,20s]
 cand[724,30s] cand[2008,30s] cand[1794,30s] cand[972,40s] cand[1557,40s]
 cand[1283,50+] cand[599,40s] cand[1880,30s] cand[1967,30s] cand[1100,30s]
 cand[56,20s] cand[163,30s] cand[1005,40s] cand[314,30s] cand[1047,30s]
 cand[1849,40s] cand[1615,30s] cand[1633,30s] cand[733,20s] cand[33,30s]
 cand[966,30s] cand[401,20s] cand[1311,20s] cand[1612,40s] cand[725,20s]
 cand[177,20s] cand[1952,20s] cand[1997,30s] cand[382,30s] cand[2065,40s]
 cand[1778,40s] cand[204,30s] cand[154,30s] cand[848,20s] cand[982,20s]
 cand[474,30s] cand[397,30s] cand[1081,50+] cand[1121,20s] cand[1138,40s]
 cand[35,40s] cand[456,20s] cand[1588,30s] cand[1061,40s] cand[1537,30s]
 cand[12,30s] cand[913,40s] cand[1177,20s] cand[1280,40s] cand[536,20s]
 cand[1745,20s] cand[904,30s] cand[1669,20s] cand[1809,30s] cand[1729,20s]
 cand[2,40s] cand[1015,20s] cand[1586,20s] cand[1314,40s] cand[1924,30s]
 cand[582,30s] cand[1934,40s] cand[1484,40s] cand[283,20s] cand[1973,50+]
 cand[96,30s] cand[1255,40s] cand[2024,30s] cand[1435,30s] cand[361,30s]
 cand[199,40s] cand[903,40s] cand[1182,30s] cand[176,40s] cand[336,40s]
 cand[328,30s] cand[1297,50+] cand[41,20s] cand[267,30s] cand[1066,30s]
 cand[5,30s] cand[1085,40s] cand[1898,20s] cand[1497,20s] cand[238,30s]
 cand[564,20s] cand[1344,30s] cand[1150,20s] cand[421,30s] cand[1423,50+]
 cand[1106,20s] cand[941,30s] cand[1338,50+] cand[760,30s] cand[2035,30s]
 cand[147,30s] cand[985,30s] cand[430,40s] cand[1457,40s] cand[1321,20s]
 cand[433,50+] cand[867,50+] cand[1070,50+] cand[579,30s] cand[2019,50+]
 cand[1890,30s] cand[1295,40s] cand[942,30s] cand[195,30s] cand[381,30s]
 cand[728,40s] cand[1881,30s] cand[762,50+] cand[616,40s] cand[1829,30s]
 cand[1576,40s] cand[956,20s] cand[947,30s] cand[1220,30s] cand[62,40s]
 cand[1870,20s] cand[15,20s] cand[783,40s] cand[1264,20s] cand[659,40s]
 cand[1642,40s] cand[1152,30s] cand[1754,20s] cand[1728,30s] cand[1369,30s]
 cand[990,30s] cand[1007,40s] cand[1221,30s] cand[1653,20s] cand[205,50+]
 cand[1417,20s] cand[1235,30s] cand[1764,30s] cand[2057,30s] cand[1619,20s]
 cand[1118,50+] cand[1544,20s] cand[1732,40s] cand[1097,20s] cand[120,50+]
 cand[1927,20s] cand[483,30s] cand[281,30s] cand[823,30s] cand[2062,30s]
 cand[1449,30s] cand[1460,40s] cand[742,30s] cand[1514,20s] cand[1611,40s]
 cand[793,20s] cand[500,50+] cand[1355,30s] cand[1218,30s] cand[1312,30s]
 cand[8,30s] cand[1349,40s] cand[1322,30s] cand[1965,20s] cand[293,20s]
 cand[764,20s] cand[1298,20s] cand[1126,40s] cand[2040,30s] cand[275,40s]
 cand[273,30s] cand[286,30s] cand[1003,40s] cand[160,30s] cand[1677,40s]
 cand[1548,30s] cand[1172,30s] cand[252,30s] cand[2014,30s] cand[438,30s]
 cand[1804,30s] cand[1275,20s] cand[76,30s] cand[448,40s] cand[1869,40s]
 cand[454,20s] cand[463,20s] cand[458,20s] cand[439,30s] cand[471,30s]
 cand[412,20s] cand[845,30s] cand[161,50+] cand[757,30s] cand[164,20s]
 cand[1424,50+] cand[608,20s] cand[577,30s] cand[1554,30s] cand[802,30s]
 cand[1018,20s] cand[1179,20s] cand[1941,40s] cand[1763,20s] cand[148,50+]
 cand[1032,50+] cand[635,30s] cand[586,30s] cand[1673,30s] cand[498,20s]
 cand[533,20s] cand[226,40s] cand[1191,50+] cand[1403,20s] cand[2010,30s]
 cand[16,30s] cand[1392,40s] cand[1309,30s] cand[602,30s] cand[530,30s]
 cand[927,40s] cand[1380,30s] cand[1391,50+] cand[2049,30s] cand[385,40s]
 cand[1905,30s] cand[1009,20s] cand[390,20s] cand[888,20s] cand[1675,30s]
 cand[1641,30s] cand[1120,20s] cand[709,30s] cand[1216,20s] cand[230,30s]
 cand[1854,40s] cand[1350,30s] cand[1439,20s] cand[1234,30s] cand[1027,20s]
 cand[752,40s] cand[1226,10s] cand[1185,30s] cand[754,40s] cand[792,20s]
 cand[1412,30s] cand[591,40s] cand[1001,20s] cand[1037,20s] cand[763,30s]
 cand[766,20s] cand[769,50+] cand[1671,30s] cand[1279,20s] cand[828,20s]
 cand[1215,40s] cand[826,30s] cand[1025,40s] cand[1102,20s] cand[852,40s]
 cand[720,20s] cand[1069,40s] cand[1308,50+] cand[712,40s] cand[897,50+]
 cand[902,40s] cand[932,30s] cand[77,30s] cand[930,20s] cand[1951,30s]
 cand[1116,40s] cand[1108,30s] cand[1331,30s] cand[1060,30s] cand[1291,30s]
 cand[1045,40s] cand[1131,20s] cand[632,20s] cand[675,20s] cand[1816,20s]
 cand[1617,40s] cand[1162,20s] cand[260,20s] cand[1044,30s] cand[732,50+]
 cand[1160,30s] cand[872,20s] cand[141,40s] cand[1296,20s] cand[875,40s]
 cand[258,50+] cand[1135,30s] cand[1303,20s] cand[738,40s] cand[1022,40s]
 cand[431,40s] cand[1464,30s] cand[277,30s] cand[274,20s] cand[1792,40s]
 cand[1800,30s] cand[262,40s] cand[1801,40s] cand[1812,30s] cand[245,30s]
 cand[1786,50+] cand[241,50+] cand[1833,30s] cand[1837,50+] cand[1844,20s]
 cand[1807,30s] cand[218,20s] cand[217,20s] cand[446,30s] cand[1789,40s]
 cand[1779,30s] cand[440,20s] cand[1674,40s] cand[426,30s] cand[1644,40s]
 cand[1645,30s] cand[1657,10s] cand[399,30s] cand[1683,40s] cand[1752,20s]
 cand[666,30s] cand[337,30s] cand[333,30s] cand[1830,50+] cand[1733,30s]
 cand[321,50+] cand[316,50+] cand[1746,20s] cand[1856,40s] cand[1858,20s]
 cand[2013,30s] cand[1969,50+] cand[75,30s] cand[70,30s] cand[65,20s]
 cand[2003,30s] cand[49,30s] cand[1862,30s] cand[45,20s] cand[38,40s]
 cand[2027,20s] cand[645,20s] cand[2048,30s] cand[2055,40s] cand[7,20s]
 cand[1968,50+] cand[1948,30s] cand[197,20s] cand[193,30s] cand[183,20s]
End
